p tw 117 21061 2 
1 3 
1 4 
1 5 
1 6 
1 7 
1 8 
1 9 
1 10 
1 11 
1 12 
1 13 
1 14 
1 15 
1 16 
1 17 
1 18 
1 19 
1 20 
1 21 
1 22 
1 23 
1 24 
1 25 
1 32 
1 44 
1 52 
1 56 
1 70 
1 82 
1 86 
1 103 
1 105 
1 111 
1 113 
1 114 
2 3 
2 4 
2 5 
2 6 
2 7 
2 8 
2 9 
2 10 
2 11 
2 12 
2 13 
2 14 
2 24 
2 26 
2 27 
2 28 
2 29 
2 30 
2 31 
2 32 
2 33 
2 34 
2 35 
2 36 
2 42 
2 52 
2 63 
2 69 
2 77 
2 81 
2 89 
2 94 
2 99 
2 107 
2 108 
3 4 
3 5 
3 6 
3 7 
3 8 
3 9 
3 10 
3 11 
3 12 
3 13 
3 15 
3 18 
3 26 
3 30 
3 37 
3 38 
3 39 
3 40 
3 41 
3 42 
3 43 
3 44 
3 45 
3 46 
3 54 
3 63 
3 72 
3 92 
3 101 
3 103 
3 106 
3 109 
3 112 
3 115 
4 5 
4 6 
4 7 
4 8 
4 9 
4 10 
4 11 
4 12 
4 13 
4 16 
4 22 
4 27 
4 34 
4 37 
4 42 
4 47 
4 48 
4 49 
4 50 
4 51 
4 52 
4 53 
4 54 
4 55 
4 62 
4 68 
4 76 
4 84 
4 90 
4 93 
4 98 
4 105 
4 106 
5 6 
5 7 
5 8 
5 9 
5 10 
5 11 
5 12 
5 13 
5 17 
5 20 
5 28 
5 33 
5 38 
5 45 
5 47 
5 55 
5 56 
5 57 
5 58 
5 59 
5 60 
5 61 
5 62 
5 63 
5 68 
5 74 
5 80 
5 99 
5 110 
5 111 
5 115 
5 117 
6 7 
6 8 
6 9 
6 10 
6 11 
6 12 
6 13 
6 18 
6 20 
6 28 
6 30 
6 39 
6 40 
6 48 
6 49 
6 58 
6 64 
6 65 
6 66 
6 67 
6 68 
6 69 
6 70 
6 71 
6 79 
6 86 
6 87 
6 88 
6 89 
6 90 
6 91 
7 8 
7 9 
7 10 
7 11 
7 12 
7 13 
7 19 
7 24 
7 27 
7 29 
7 39 
7 41 
7 49 
7 56 
7 62 
7 71 
7 72 
7 73 
7 74 
7 75 
7 76 
7 77 
7 78 
7 85 
7 91 
7 96 
7 100 
7 102 
7 111 
7 112 
8 9 
8 10 
8 11 
8 12 
8 13 
8 14 
8 16 
8 26 
8 40 
8 55 
8 57 
8 61 
8 64 
8 69 
8 72 
8 78 
8 79 
8 80 
8 81 
8 82 
8 83 
8 84 
8 85 
8 93 
8 97 
8 100 
8 109 
8 114 
8 116 
9 10 
9 11 
9 12 
9 13 
9 21 
9 23 
9 29 
9 31 
9 37 
9 41 
9 50 
9 59 
9 60 
9 65 
9 67 
9 73 
9 80 
9 82 
9 86 
9 88 
9 92 
9 93 
9 94 
9 95 
9 98 
9 99 
9 100 
9 101 
10 11 
10 12 
10 13 
10 21 
10 22 
10 32 
10 36 
10 38 
10 44 
10 48 
10 51 
10 58 
10 66 
10 74 
10 76 
10 81 
10 85 
10 87 
10 92 
10 95 
10 96 
10 97 
10 101 
10 104 
10 108 
10 110 
10 116 
11 12 
11 13 
11 15 
11 25 
11 33 
11 35 
11 43 
11 47 
11 51 
11 61 
11 65 
11 70 
11 73 
11 75 
11 83 
11 84 
11 89 
11 91 
11 95 
11 98 
11 102 
11 103 
11 104 
11 107 
11 109 
11 110 
12 13 
12 17 
12 25 
12 34 
12 35 
12 45 
12 46 
12 50 
12 53 
12 59 
12 66 
12 67 
12 77 
12 78 
12 79 
12 83 
12 88 
12 96 
12 104 
12 106 
12 108 
12 112 
12 113 
12 114 
12 117 
13 19 
13 23 
13 31 
13 36 
13 43 
13 46 
13 53 
13 54 
13 57 
13 60 
13 64 
13 71 
13 75 
13 87 
13 90 
13 94 
13 97 
13 102 
13 105 
13 107 
13 113 
13 115 
13 116 
13 117 
14 15 
14 16 
14 17 
14 18 
14 19 
14 20 
14 21 
14 22 
14 23 
14 24 
14 25 
14 26 
14 27 
14 28 
14 29 
14 30 
14 31 
14 32 
14 33 
14 34 
14 35 
14 36 
14 40 
14 55 
14 61 
14 69 
14 78 
14 93 
14 97 
14 100 
14 109 
14 114 
14 116 
15 16 
15 17 
15 18 
15 19 
15 20 
15 21 
15 22 
15 23 
15 24 
15 25 
15 26 
15 33 
15 37 
15 38 
15 39 
15 40 
15 41 
15 42 
15 43 
15 44 
15 45 
15 46 
15 51 
15 61 
15 65 
15 75 
15 83 
15 89 
15 98 
15 102 
15 103 
15 104 
16 17 
16 18 
16 19 
16 20 
16 21 
16 22 
16 23 
16 24 
16 25 
16 26 
16 27 
16 37 
16 47 
16 48 
16 49 
16 50 
16 51 
16 52 
16 53 
16 54 
16 55 
16 57 
16 64 
16 72 
16 79 
16 80 
16 81 
16 82 
16 83 
16 84 
16 85 
17 18 
17 19 
17 20 
17 21 
17 22 
17 23 
17 24 
17 25 
17 28 
17 35 
17 38 
17 46 
17 47 
17 50 
17 56 
17 57 
17 58 
17 59 
17 60 
17 61 
17 62 
17 63 
17 67 
17 77 
17 79 
17 96 
17 104 
17 106 
17 114 
17 117 
18 19 
18 20 
18 21 
18 22 
18 23 
18 24 
18 25 
18 28 
18 30 
18 39 
18 48 
18 54 
18 63 
18 64 
18 65 
18 66 
18 67 
18 68 
18 69 
18 70 
18 71 
18 72 
18 92 
18 101 
18 103 
18 106 
18 109 
18 112 
18 115 
19 20 
19 21 
19 22 
19 23 
19 24 
19 25 
19 29 
19 36 
19 39 
19 43 
19 49 
19 54 
19 56 
19 60 
19 64 
19 72 
19 73 
19 74 
19 75 
19 76 
19 77 
19 78 
19 90 
19 94 
19 97 
19 102 
19 113 
19 117 
20 21 
20 22 
20 23 
20 24 
20 25 
20 30 
20 33 
20 40 
20 45 
20 49 
20 55 
20 58 
20 68 
20 74 
20 79 
20 80 
20 86 
20 87 
20 88 
20 89 
20 90 
20 91 
20 99 
20 110 
20 111 
20 115 
20 117 
21 22 
21 23 
21 24 
21 25 
21 31 
21 36 
21 41 
21 44 
21 48 
21 50 
21 58 
21 59 
21 65 
21 73 
21 76 
21 80 
21 85 
21 86 
21 92 
21 93 
21 94 
21 101 
21 104 
21 108 
21 110 
21 116 
22 23 
22 24 
22 25 
22 32 
22 34 
22 38 
22 42 
22 51 
22 62 
22 66 
22 68 
22 74 
22 76 
22 81 
22 84 
22 87 
22 90 
22 92 
22 93 
22 95 
22 96 
22 97 
22 98 
22 105 
22 106 
23 24 
23 25 
23 29 
23 31 
23 37 
23 46 
23 53 
23 57 
23 60 
23 67 
23 71 
23 75 
23 82 
23 87 
23 88 
23 95 
23 98 
23 99 
23 100 
23 101 
23 105 
23 107 
23 115 
23 116 
24 25 
24 27 
24 41 
24 42 
24 52 
24 62 
24 63 
24 69 
24 71 
24 77 
24 81 
24 85 
24 89 
24 91 
24 94 
24 96 
24 99 
24 100 
24 102 
24 107 
24 108 
24 111 
24 112 
25 34 
25 35 
25 43 
25 45 
25 47 
25 53 
25 59 
25 66 
25 70 
25 73 
25 78 
25 83 
25 84 
25 88 
25 91 
25 95 
25 107 
25 108 
25 109 
25 110 
25 112 
25 113 
26 27 
26 28 
26 29 
26 30 
26 31 
26 32 
26 33 
26 34 
26 35 
26 36 
26 37 
26 38 
26 39 
26 40 
26 41 
26 42 
26 43 
26 44 
26 45 
26 46 
26 57 
26 64 
26 72 
26 79 
26 80 
26 81 
26 82 
26 83 
26 84 
26 85 
27 28 
27 29 
27 30 
27 31 
27 32 
27 33 
27 34 
27 35 
27 36 
27 37 
27 41 
27 47 
27 48 
27 49 
27 50 
27 51 
27 52 
27 53 
27 54 
27 55 
27 62 
27 71 
27 85 
27 91 
27 96 
27 100 
27 102 
27 111 
27 112 
28 29 
28 30 
28 31 
28 32 
28 33 
28 34 
28 35 
28 36 
28 38 
28 39 
28 47 
28 48 
28 56 
28 57 
28 58 
28 59 
28 60 
28 61 
28 62 
28 63 
28 64 
28 65 
28 66 
28 67 
28 68 
28 69 
28 70 
28 71 
29 30 
29 31 
29 32 
29 33 
29 34 
29 35 
29 36 
29 37 
29 39 
29 49 
29 56 
29 60 
29 67 
29 72 
29 73 
29 74 
29 75 
29 76 
29 77 
29 78 
29 82 
29 88 
29 95 
29 98 
29 99 
29 100 
29 101 
30 31 
30 32 
30 33 
30 34 
30 35 
30 36 
30 40 
30 49 
30 54 
30 58 
30 63 
30 72 
30 79 
30 86 
30 87 
30 88 
30 89 
30 90 
30 91 
30 92 
30 101 
30 103 
30 106 
30 109 
30 112 
30 115 
31 32 
31 33 
31 34 
31 35 
31 36 
31 41 
31 46 
31 50 
31 53 
31 57 
31 59 
31 65 
31 71 
31 73 
31 75 
31 80 
31 86 
31 87 
31 92 
31 93 
31 94 
31 105 
31 107 
31 115 
31 116 
32 33 
32 34 
32 35 
32 36 
32 38 
32 44 
32 51 
32 52 
32 56 
32 66 
32 70 
32 74 
32 81 
32 82 
32 86 
32 87 
32 92 
32 95 
32 96 
32 97 
32 103 
32 105 
32 111 
32 113 
32 114 
33 34 
33 35 
33 36 
33 45 
33 51 
33 55 
33 61 
33 65 
33 68 
33 74 
33 75 
33 80 
33 83 
33 89 
33 98 
33 99 
33 102 
33 103 
33 104 
33 110 
33 111 
33 115 
33 117 
34 35 
34 36 
34 42 
34 45 
34 53 
34 59 
34 62 
34 66 
34 68 
34 76 
34 78 
34 83 
34 84 
34 88 
34 90 
34 93 
34 98 
34 105 
34 106 
34 108 
34 112 
34 113 
35 36 
35 43 
35 46 
35 47 
35 50 
35 67 
35 70 
35 73 
35 77 
35 79 
35 84 
35 91 
35 95 
35 96 
35 104 
35 106 
35 107 
35 109 
35 110 
35 114 
35 117 
36 43 
36 44 
36 48 
36 54 
36 58 
36 60 
36 64 
36 76 
36 85 
36 90 
36 94 
36 97 
36 101 
36 102 
36 104 
36 108 
36 110 
36 113 
36 116 
36 117 
37 38 
37 39 
37 40 
37 41 
37 42 
37 43 
37 44 
37 45 
37 46 
37 47 
37 48 
37 49 
37 50 
37 51 
37 52 
37 53 
37 54 
37 55 
37 60 
37 67 
37 82 
37 88 
37 95 
37 98 
37 99 
37 100 
37 101 
38 39 
38 40 
38 41 
38 42 
38 43 
38 44 
38 45 
38 46 
38 47 
38 51 
38 56 
38 57 
38 58 
38 59 
38 60 
38 61 
38 62 
38 63 
38 66 
38 74 
38 81 
38 87 
38 92 
38 95 
38 96 
38 97 
39 40 
39 41 
39 42 
39 43 
39 44 
39 45 
39 46 
39 48 
39 49 
39 56 
39 64 
39 65 
39 66 
39 67 
39 68 
39 69 
39 70 
39 71 
39 72 
39 73 
39 74 
39 75 
39 76 
39 77 
39 78 
40 41 
40 42 
40 43 
40 44 
40 45 
40 46 
40 49 
40 55 
40 58 
40 61 
40 69 
40 78 
40 79 
40 86 
40 87 
40 88 
40 89 
40 90 
40 91 
40 93 
40 97 
40 100 
40 109 
40 114 
40 116 
41 42 
41 43 
41 44 
41 45 
41 46 
41 50 
41 59 
41 62 
41 65 
41 71 
41 73 
41 80 
41 85 
41 86 
41 91 
41 92 
41 93 
41 94 
41 96 
41 100 
41 102 
41 111 
41 112 
42 43 
42 44 
42 45 
42 46 
42 52 
42 62 
42 63 
42 68 
42 69 
42 76 
42 77 
42 81 
42 84 
42 89 
42 90 
42 93 
42 94 
42 98 
42 99 
42 105 
42 106 
42 107 
42 108 
43 44 
43 45 
43 46 
43 47 
43 54 
43 60 
43 64 
43 70 
43 73 
43 84 
43 90 
43 91 
43 94 
43 95 
43 97 
43 102 
43 107 
43 109 
43 110 
43 113 
43 117 
44 45 
44 46 
44 48 
44 52 
44 56 
44 58 
44 70 
44 76 
44 82 
44 85 
44 86 
44 101 
44 103 
44 104 
44 105 
44 108 
44 110 
44 111 
44 113 
44 114 
44 116 
45 46 
45 53 
45 55 
45 59 
45 66 
45 68 
45 74 
45 78 
45 80 
45 83 
45 88 
45 99 
45 108 
45 110 
45 111 
45 112 
45 113 
45 115 
45 117 
46 50 
46 53 
46 57 
46 67 
46 71 
46 75 
46 77 
46 79 
46 87 
46 96 
46 104 
46 105 
46 106 
46 107 
46 114 
46 115 
46 116 
46 117 
47 48 
47 49 
47 50 
47 51 
47 52 
47 53 
47 54 
47 55 
47 56 
47 57 
47 58 
47 59 
47 60 
47 61 
47 62 
47 63 
47 70 
47 73 
47 84 
47 91 
47 95 
47 107 
47 109 
47 110 
48 49 
48 50 
48 51 
48 52 
48 53 
48 54 
48 55 
48 58 
48 64 
48 65 
48 66 
48 67 
48 68 
48 69 
48 70 
48 71 
48 76 
48 85 
48 101 
48 104 
48 108 
48 110 
48 116 
49 50 
49 51 
49 52 
49 53 
49 54 
49 55 
49 56 
49 58 
49 72 
49 73 
49 74 
49 75 
49 76 
49 77 
49 78 
49 79 
49 86 
49 87 
49 88 
49 89 
49 90 
49 91 
50 51 
50 52 
50 53 
50 54 
50 55 
50 59 
50 65 
50 67 
50 73 
50 77 
50 79 
50 80 
50 86 
50 92 
50 93 
50 94 
50 96 
50 104 
50 106 
50 114 
50 117 
51 52 
51 53 
51 54 
51 55 
51 61 
51 65 
51 66 
51 74 
51 75 
51 81 
51 83 
51 87 
51 89 
51 92 
51 95 
51 96 
51 97 
51 98 
51 102 
51 103 
51 104 
52 53 
52 54 
52 55 
52 56 
52 63 
52 69 
52 70 
52 77 
52 81 
52 82 
52 86 
52 89 
52 94 
52 99 
52 103 
52 105 
52 107 
52 108 
52 111 
52 113 
52 114 
53 54 
53 55 
53 57 
53 59 
53 66 
53 71 
53 75 
53 78 
53 83 
53 87 
53 88 
53 105 
53 107 
53 108 
53 112 
53 113 
53 115 
53 116 
54 55 
54 60 
54 63 
54 64 
54 72 
54 90 
54 92 
54 94 
54 97 
54 101 
54 102 
54 103 
54 106 
54 109 
54 112 
54 113 
54 115 
54 117 
55 61 
55 68 
55 69 
55 74 
55 78 
55 80 
55 93 
55 97 
55 99 
55 100 
55 109 
55 110 
55 111 
55 114 
55 115 
55 116 
55 117 
56 57 
56 58 
56 59 
56 60 
56 61 
56 62 
56 63 
56 70 
56 72 
56 73 
56 74 
56 75 
56 76 
56 77 
56 78 
56 82 
56 86 
56 103 
56 105 
56 111 
56 113 
56 114 
57 58 
57 59 
57 60 
57 61 
57 62 
57 63 
57 64 
57 71 
57 72 
57 75 
57 79 
57 80 
57 81 
57 82 
57 83 
57 84 
57 85 
57 87 
57 105 
57 107 
57 115 
57 116 
58 59 
58 60 
58 61 
58 62 
58 63 
58 76 
58 79 
58 85 
58 86 
58 87 
58 88 
58 89 
58 90 
58 91 
58 101 
58 104 
58 108 
58 110 
58 116 
59 60 
59 61 
59 62 
59 63 
59 65 
59 66 
59 73 
59 78 
59 80 
59 83 
59 86 
59 88 
59 92 
59 93 
59 94 
59 108 
59 112 
59 113 
60 61 
60 62 
60 63 
60 64 
60 67 
60 82 
60 88 
60 90 
60 94 
60 95 
60 97 
60 98 
60 99 
60 100 
60 101 
60 102 
60 113 
60 117 
61 62 
61 63 
61 65 
61 69 
61 75 
61 78 
61 83 
61 89 
61 93 
61 97 
61 98 
61 100 
61 102 
61 103 
61 104 
61 109 
61 114 
61 116 
62 63 
62 68 
62 71 
62 76 
62 84 
62 85 
62 90 
62 91 
62 93 
62 96 
62 98 
62 100 
62 102 
62 105 
62 106 
62 111 
62 112 
63 69 
63 72 
63 77 
63 81 
63 89 
63 92 
63 94 
63 99 
63 101 
63 103 
63 106 
63 107 
63 108 
63 109 
63 112 
63 115 
64 65 
64 66 
64 67 
64 68 
64 69 
64 70 
64 71 
64 72 
64 79 
64 80 
64 81 
64 82 
64 83 
64 84 
64 85 
64 90 
64 94 
64 97 
64 102 
64 113 
64 117 
65 66 
65 67 
65 68 
65 69 
65 70 
65 71 
65 73 
65 75 
65 80 
65 83 
65 86 
65 89 
65 92 
65 93 
65 94 
65 98 
65 102 
65 103 
65 104 
66 67 
66 68 
66 69 
66 70 
66 71 
66 74 
66 78 
66 81 
66 83 
66 87 
66 88 
66 92 
66 95 
66 96 
66 97 
66 108 
66 112 
66 113 
67 68 
67 69 
67 70 
67 71 
67 77 
67 79 
67 82 
67 88 
67 95 
67 96 
67 98 
67 99 
67 100 
67 101 
67 104 
67 106 
67 114 
67 117 
68 69 
68 70 
68 71 
68 74 
68 76 
68 80 
68 84 
68 90 
68 93 
68 98 
68 99 
68 105 
68 106 
68 110 
68 111 
68 115 
68 117 
69 70 
69 71 
69 77 
69 78 
69 81 
69 89 
69 93 
69 94 
69 97 
69 99 
69 100 
69 107 
69 108 
69 109 
69 114 
69 116 
70 71 
70 73 
70 82 
70 84 
70 86 
70 91 
70 95 
70 103 
70 105 
70 107 
70 109 
70 110 
70 111 
70 113 
70 114 
71 75 
71 85 
71 87 
71 91 
71 96 
71 100 
71 102 
71 105 
71 107 
71 111 
71 112 
71 115 
71 116 
72 73 
72 74 
72 75 
72 76 
72 77 
72 78 
72 79 
72 80 
72 81 
72 82 
72 83 
72 84 
72 85 
72 92 
72 101 
72 103 
72 106 
72 109 
72 112 
72 115 
73 74 
73 75 
73 76 
73 77 
73 78 
73 80 
73 84 
73 86 
73 91 
73 92 
73 93 
73 94 
73 95 
73 107 
73 109 
73 110 
74 75 
74 76 
74 77 
74 78 
74 80 
74 81 
74 87 
74 92 
74 95 
74 96 
74 97 
74 99 
74 110 
74 111 
74 115 
74 117 
75 76 
75 77 
75 78 
75 83 
75 87 
75 89 
75 98 
75 102 
75 103 
75 104 
75 105 
75 107 
75 115 
75 116 
76 77 
76 78 
76 84 
76 85 
76 90 
76 93 
76 98 
76 101 
76 104 
76 105 
76 106 
76 108 
76 110 
76 116 
77 78 
77 79 
77 81 
77 89 
77 94 
77 96 
77 99 
77 104 
77 106 
77 107 
77 108 
77 114 
77 117 
78 83 
78 88 
78 93 
78 97 
78 100 
78 108 
78 109 
78 112 
78 113 
78 114 
78 116 
79 80 
79 81 
79 82 
79 83 
79 84 
79 85 
79 86 
79 87 
79 88 
79 89 
79 90 
79 91 
79 96 
79 104 
79 106 
79 114 
79 117 
80 81 
80 82 
80 83 
80 84 
80 85 
80 86 
80 92 
80 93 
80 94 
80 99 
80 110 
80 111 
80 115 
80 117 
81 82 
81 83 
81 84 
81 85 
81 87 
81 89 
81 92 
81 94 
81 95 
81 96 
81 97 
81 99 
81 107 
81 108 
82 83 
82 84 
82 85 
82 86 
82 88 
82 95 
82 98 
82 99 
82 100 
82 101 
82 103 
82 105 
82 111 
82 113 
82 114 
83 84 
83 85 
83 88 
83 89 
83 98 
83 102 
83 103 
83 104 
83 108 
83 112 
83 113 
84 85 
84 90 
84 91 
84 93 
84 95 
84 98 
84 105 
84 106 
84 107 
84 109 
84 110 
85 91 
85 96 
85 100 
85 101 
85 102 
85 104 
85 108 
85 110 
85 111 
85 112 
85 116 
86 87 
86 88 
86 89 
86 90 
86 91 
86 92 
86 93 
86 94 
86 103 
86 105 
86 111 
86 113 
86 114 
87 88 
87 89 
87 90 
87 91 
87 92 
87 95 
87 96 
87 97 
87 105 
87 107 
87 115 
87 116 
88 89 
88 90 
88 91 
88 95 
88 98 
88 99 
88 100 
88 101 
88 108 
88 112 
88 113 
89 90 
89 91 
89 94 
89 98 
89 99 
89 102 
89 103 
89 104 
89 107 
89 108 
90 91 
90 93 
90 94 
90 97 
90 98 
90 102 
90 105 
90 106 
90 113 
90 117 
91 95 
91 96 
91 100 
91 102 
91 107 
91 109 
91 110 
91 111 
91 112 
92 93 
92 94 
92 95 
92 96 
92 97 
92 101 
92 103 
92 106 
92 109 
92 112 
92 115 
93 94 
93 97 
93 98 
93 100 
93 105 
93 106 
93 109 
93 114 
93 116 
94 97 
94 99 
94 102 
94 107 
94 108 
94 113 
94 117 
95 96 
95 97 
95 98 
95 99 
95 100 
95 101 
95 107 
95 109 
95 110 
96 97 
96 100 
96 102 
96 104 
96 106 
96 111 
96 112 
96 114 
96 117 
97 100 
97 102 
97 109 
97 113 
97 114 
97 116 
97 117 
98 99 
98 100 
98 101 
98 102 
98 103 
98 104 
98 105 
98 106 
99 100 
99 101 
99 107 
99 108 
99 110 
99 111 
99 115 
99 117 
100 101 
100 102 
100 109 
100 111 
100 112 
100 114 
100 116 
101 103 
101 104 
101 106 
101 108 
101 109 
101 110 
101 112 
101 115 
101 116 
102 103 
102 104 
102 111 
102 112 
102 113 
102 117 
103 104 
103 105 
103 106 
103 109 
103 111 
103 112 
103 113 
103 114 
103 115 
104 106 
104 108 
104 110 
104 114 
104 116 
104 117 
105 106 
105 107 
105 111 
105 113 
105 114 
105 115 
105 116 
106 109 
106 112 
106 114 
106 115 
106 117 
107 108 
107 109 
107 110 
107 115 
107 116 
108 110 
108 112 
108 113 
108 116 
109 110 
109 112 
109 114 
109 115 
109 116 
110 111 
110 115 
110 116 
110 117 
111 112 
111 113 
111 114 
111 115 
111 117 
112 113 
112 115 
113 114 
113 117 
114 116 
114 117 
115 116 
115 117 
